Al O  Si O  Si O  Si O  Si O  Si O  Si O  Al O  Al O  Al O  Al O  Si O  Al O  Al O  Al O  Al O  Si O  Al O  Al O  Al O  Al O  Si O  Al O  Al O  Al O  Al O  Al O  Si O  Al O 
 1.0000000000000000
     8.3163003922000005    0.0000000000000000    0.0000000000000000
     0.0000000000000000    8.0065002440999997    0.0000000000000000
     0.0000000000000000    0.0000000000000000   40.0000000000000000
 Al  O   Si  O   Si  O   Si  O   Si  O   Si  O   Si  O   Al  O   Al  O   Al  O   Al  O   Si  O   Al  O   Al  O   Al  O   Al  O   Si  O   Al  O   Al  O   Al  O   Al  O   Si  O   Al  O   Al  O   Al  O   Al  O   Al  O   Si  O   Al  O  
  24  36   1   2   1   2   1   2   1   2   1   2   1   2   1   2   1   1   1   2   1   1   1   2   1   2   1   1   1   2   1   1   1   2   1   2   1   1   1   2   1   1   1   2   1   2   1   1   1   2   1   1   1   2   1   2   1   1
Selective dynamics
Cartesian
  0.6280469890000000  4.9521808590000003  0.0470137880000000   F   F   F
  3.5300200030000002  4.9521808590000003  0.0470137880000000   F   F   F
  6.2372255350000003  1.0486913940000000  0.1063880080000000   F   F   F
  2.0790750980000001  2.0764057650000001  0.1405999190000000   F   F   F
  6.2372255350000003  5.9981498750000002  1.4163731239999999   F   F   F
  2.0790750980000001  7.0259437589999996  1.4505850350000002   F   F   F
  7.6881704310000050  3.1223747730000002  1.5101799770000002   F   F   F
  4.7862801570000002  3.1223747730000002  1.5101799770000002   F   F   F
  2.0790750980000001  4.0046911239999998  2.8097911590000009   F   F   F
  6.2372255350000003  1.0116213540000001  2.8512868960000000   F   F   F
  3.5058195599999999  1.1091405190000001  2.8921204679999999   F   F   F
  0.6523306360000000  1.1091405190000001  2.8921204679999999   F   F   F
  4.7572112530173065  6.9519554064156219  3.8355591276424517   T   T   T
  7.7596098022263691  7.2046473754641411  4.0468636460056455   T   T   T
  1.8595919651705655  6.7003483816479825  4.3288382107540162   T   T   T
  6.0236955883862278  3.8571704881730642  4.2672762760129137   T   T   T
 -0.7917053207655270  2.4477798408426823  6.5092985729107378   T   T   T
  3.5597857735853604  4.9473736658740268  5.3965755645287095   T   T   T
  3.1573885520910974 -0.4668417398158251  7.4770818874451583   T   T   T
  2.3815360883976360  1.9815480301537498  5.6932795336440698   T   T   T
  2.7532294560308261  1.8277799734634934 16.2665939941277138   T   T   T
  0.4074597003728298  6.2815754123018248  7.1826319450877074   T   T   T
  6.3201312777684509  0.0203606577119366  7.9217913866723215   T   T   T
  3.5350068686060792  3.0194061934235972  7.6136915893269075   T   T   T
  3.3844847709999999  6.8917551030000004  0.0000000000000000   F   F   F
  0.7736654250000004  6.8917551030000004  0.0000000000000000   F   F   F
  6.2372255350000003  7.1627750399999996  0.0192028150000000   F   F   F
  6.2372255350000003  2.9230933179999998  0.1562711810000000   F   F   F
  0.6781943470000000  3.1299810440000000  0.1849650420000000   F   F   F
  3.4799559160000002  3.1299810440000000  0.1849650420000000   F   F   F
  7.6381058709999996  4.9446544609999998  1.3722287220000000   F   F   F
  4.8363447180000003  4.9446544609999998  1.3722287220000000   F   F   F
  2.0790750980000001  5.1515421870000004  1.4007018609999999   F   F   F
  2.0790750980000001  0.9117802400000000  1.5379909500000000   F   F   F
  4.9318156220000002  1.1828804020000001  1.5571937650000001   F   F   F
  7.5426349670000015  1.1828804020000001  1.5571937650000001   F   F   F
  0.6849305000000000  2.9200506239999999  2.7994172239999999   F   F   F
  3.4732196289999999  2.9200506239999999  2.7994172239999999   F   F   F
  6.2372255350000003  2.9861845960000002  2.8003001120000000   F   F   F
  6.2372255350000003  7.0292267759999998  2.8837330309999998   F   F   F
  3.3824887250000000  7.1930398909999997  2.9069088420000000   F   F   F
  0.7756612880000000  7.1930398909999997  2.9069088420000000   F   F   F
  4.8954939746959241  0.7008363519228423  3.9257329088589765   T   T   T
  7.6583161064603749  0.8705222414676275  3.9500412160527465   T   T   T
  2.2204616417058620  1.0854080316887118  4.1454726072369246   T   T   T
  2.2239919736029541  5.0544570644249314  4.0995165551445600   T   T   T
  6.7364369834893800  3.6721870228587243  5.6430955771292615   T   T   T
  4.9132578401335003  5.2669268315403750  4.3748410885578632   T   T   T
  3.1337614838715750  6.5570982279101395  5.8455252661901618   T   T   T
  0.4514686190325907  6.6603072577070481  5.3391902610992537   T   T   T
  1.5408111799098771  8.1105655734778050 10.8690835413496316   T   T   T
  6.4596451836377939  1.1029133641757127  6.7145071747409268   T   T   T
  0.7945947900491511  2.2986516946824769  6.0510926454886338   T   T   T
  3.3367822798364712  3.3977008940230542  5.9769158376313234   T   T   T
  4.4936718375296696  4.3939138370183075  8.1283085827403010   T   T   T
  2.1833186627837717  3.0455995560994036  8.5007890720333474   T   T   T
 -0.6019911902542694  2.9803805313079113  8.2111245238460349   T   T   T
  1.5449406694254870 -0.6752294853922726  8.0933777254992592   T   T   T
  3.2197573307387404  1.2421792415410438  6.9701579554008974   T   T   T
  4.6688369114499508 -0.8622896542036482  8.2200993105448337   T   T   T
  0.0843024496114707 -3.5175422618485301 13.3962187512442465   T   T   T
  0.1958166039993851 -4.7533584718318824 10.2281238606730724   T   T   T
  1.6100767240866642  0.6979301508771054 13.3721762881727670   T   T   T
  0.5480627366133294  1.5087700285949446 14.1753670562500584   T   T   T
  0.7931479378165124 -3.1007167003362142  7.9659337863602655   T   T   T
  3.1671912302385952  8.8847024872739144 17.4680297403136890   T   T   T
  6.1281258720730882  8.2874933668313862 13.5624832819227787   T   T   T
  3.5526334039629339  1.0950333236719867 11.6810802713362030   T   T   T
  7.2681723899971935 -3.0250225712141550 12.4175738565442391   T   T   T
  2.4172181989949286  8.0983477794367307 12.0894387604315607   T   T   T
  7.5128288278380575  0.6394106342781757  9.1936808724182413   T   T   T
  3.0761258154335058  6.7390048301832373 12.4015212585331884   T   T   T
  6.8135446007025759 -1.9202045920051916 11.3939642585364798   T   T   T
  5.5662471505189979  9.7424551682543843 13.4054117101464030   T   T   T
  1.5234246871346937  4.7571782924252437 13.0212359627944974   T   T   T
  0.7366348344889859  3.6361078196515111  8.7966736839321911   T   T   T
 -1.2489598956875159 -1.4038495400905393  7.5329313267384110   T   T   T
  0.1631499614762958  2.8927815750762145 13.6255132737210793   T   T   T
  8.9045697255041318 -0.4086087325668873  9.6880378967596226   T   T   T
  7.5782990151617557  0.6083986396591806 14.1213930691505176   T   T   T
 -1.9628063303737990 -0.6526981591809922 12.2699626646289595   T   T   T
  5.1018484736478236  5.6661982261965012  8.8606216933667064   T   T   T
 -2.6796130220810266 -5.6736961109924655 10.1437776000755058   T   T   T
 -0.8293691017106950  5.7380469444381665 20.8391915011240485   T   T   T
 -4.2764931734241509 -4.3699053681692837 12.2121066180007531   T   T   T
  5.7316197491318821  5.6777633713599416 10.3898200048379845   T   T   T
  3.1886580814768122  5.1187141231863977 12.7771103270161195   T   T   T
 -2.5022567632890165  5.7679304392599064 20.6251899822123903   T   T   T
  0.0323767617394495  2.1602468728239521 17.1020097359311443   T   T   T
 -0.9499262551915610  3.1251843522827878 16.4874880801676973   T   T   T
  1.0222361331063898  1.7017503789656199 15.7959620362544193   T   T   T
  7.2137276409752618  2.2782079910093036  9.6958064275776508   T   T   T
  7.6926486969995205  9.0467172816356118 17.9738246938833903   T   T   T
  9.2527448521683446  2.9461297490550740 18.1663125537046710   T   T   T
  3.1924729470884308 -0.8541586532645308 17.5456161090909042   T   T   T
 -2.3938613217751041  8.3572550486827559 20.4554290641856262   T   T   T
  5.5353190057537303 -2.7109101573867092 18.0319661526531441   T   T   T
 -2.7116507645182106  5.3387667026049623 16.1937458935341141   T   T   T
 -4.7242896318665570  2.5167004458359852 15.1459108690209465   T   T   T
 -3.9106604503048219 11.4213813372461424 20.1664473025253663   T   T   T
  4.5849127901052613 -1.4536065692978919 18.5086342533136197   T   T   T
  1.1485562429872131  3.3048912455860817 19.6780484456758948   T   T   T
 -5.6521845464188587  3.3607881777188933 20.1018762432590137   T   T   T
  0.3124327864606129  4.6766941209751884 19.9016708986931512   T   T   T
  4.4721544376710112  2.3701515466148728 11.2775593328524959   T   T   T
 -0.3034874632319346 -1.5540283211314825 10.4964349298500039   T   T   T
  4.2950254555211842 -3.0800842347448003 14.2110205432141790   T   T   T
  4.5606373961677020  3.1280162474741910 13.8923848453459176   T   T   T
  3.5325710999537558 -1.3909436151597112 16.0143249598921535   T   T   T
  0.4037820512149970 -2.0034150969783515 18.7133256612522665   T   T   T
  5.1398018977471160 -4.1854213568361915 18.7200709815708457   T   T   T
 -0.9680325063898050 -2.5761093221663405 17.8007696077605289   T   T   T
  4.7971005016336417 -0.9407004533374801 20.1618732361998383   T   T   T
  5.3721031360598142 -0.6767268583330669 14.4879147294205346   T   T   T
  4.6693027890226038 -1.9069628482956396 15.1374331607117956   T   T   T
  8.7788101498984332 -13.7859607334839556 20.5592048194861761   T   T   T
  1.7803298019702882  0.6688999080480807 22.5321427913091199   T   T   T
 -0.9201512502314247  0.5943908448036684 19.5998365000222741   T   T   T
  8.0645656077215051  6.1392469017468434 22.3017253742402808   T   T   T
 -1.3478940225940885 -7.3322315643417157 22.9532591797242418   T   T   T
  1.1398147538263741 -5.8495358832625985 22.1686670927181950   T   T   T
  3.3346579763747606 -0.5804651120267941 20.9084216744298814   T   T   T
  1.1382552690689787 -2.7272186650544947 23.2859304641425027   T   T   T
  1.1038831417251265 -4.3483622555741581 22.9408704520028870   T   T   T
  2.4869816686961346 -1.7573215331815719 22.9181323650360049   T   T   T
  5.5295741427602643  1.1461324960280050 22.1905991153173829   T   T   T
  8.0298037416357708 -0.9683218440497335 19.7497338628340771   T   T   T
  7.1993296309498165  4.7561316684353745 16.1806912923023170   T   T   T
 -0.2579964001413996  5.1193276818851761 14.7681419386132760   T   T   T
  1.8134410828557226  6.3911615101855741 18.0394144113690231   T   T   T
  2.9524847175823261 -0.3696693541488013 22.3757694254485244   T   T   T
  4.2656194770445062  0.2551559028973829 22.8671375178647516   T   T   T
  5.0735978126288082  2.6231010223766584 21.4308098796555733   T   T   T
 -0.5336076444576959 -0.6818106449901563 23.4757088222526349   T   T   T
  8.6529205447148119  6.3247795258454973 24.5581270873819477   T   T   T
