Al O  Si O  Si O  Si O  Si O  Si O  Si O  Si O  Si O  Si O  Si O  Si O  Si O  Si O  Si O  Si O  Si O  Si O  Si O  Si O  Al O  Si O  Si O  Al O  Si O  Al
 1.0000000000000000
    16.6326007842999992    0.0000000000000000    0.0000000000000000
     0.0000000000000000   16.0130004883000012    0.0000000000000000
     0.0000000000000000    0.0000000000000000   40.0000000000000000
 Al  O   Si  O   Si  O   Si  O   Si  O   Si  O   Si  O   Si  O   Si  O   Si  O   Si  O   Si  O   Si  O   Si  O   Si  O   Si  O   Si  O   Si  O   Si  O   Si  O   Al  O   Si  O   Si  O   Al  O   Si  O   Al 
  93 129   1   1   1   2   1   3   1   1   1   2   1   2   1   2   1   2   1   1   1   5   1   2   1   2   1   2   1   6   1   2   1   2   1   1   1   4   1   2   1   6   1   2   1   2   1   2   1   2   1
Selective dynamics
Cartesian
  0.6280469890000000  4.9521808589998457  0.0470137880000000   F   F   F
  0.6280469890000000 12.9586811030000000  0.0470137880000000   F   F   F
  8.9443473810000000  4.9521808589998457  0.0470137880000000   F   F   F
  8.9443473810000000 12.9586811030000000  0.0470137880000000   F   F   F
  3.5300200030000002  4.9521808589998457  0.0470137880000000   F   F   F
  3.5300200030000002 12.9586811030000000  0.0470137880000000   F   F   F
 11.8463203949999993  4.9521808589998457  0.0470137880000000   F   F   F
 11.8463203949999993 12.9586811030000000  0.0470137880000000   F   F   F
  6.2372255350000003  1.0486913940000000  0.1063880080000000   F   F   F
  6.2372255350000003  9.0551916380000002  0.1063880080000000   F   F   F
 14.5535259270000008  1.0486913940000000  0.1063880080000000   F   F   F
 14.5535259270000008  9.0551916380000002  0.1063880080000000   F   F   F
  2.0790750979999997  2.0764057650000001  0.1405999190000000   F   F   F
  2.0790750979999997 10.0829060090000002  0.1405999190000000   F   F   F
 10.3953754899999993  2.0764057650000001  0.1405999190000000   F   F   F
 10.3953754899999993 10.0829060090000002  0.1405999190000000   F   F   F
  6.2372255350000003  5.9981498750000002  1.4163731239999999   F   F   F
  6.2372255350000003 14.0046501190000008  1.4163731239999999   F   F   F
 14.5535259270000008  5.9981498750000002  1.4163731239999999   F   F   F
 14.5535259270000008 14.0046501190000008  1.4163731239999999   F   F   F
  2.0790750979999997  7.0259437589999996  1.4505850350000002   F   F   F
  2.0790750979999997 15.0324440030000002  1.4505850350000002   F   F   F
 10.3953754899999993  7.0259437589999996  1.4505850350000002   F   F   F
 10.3953754899999993 15.0324440030000002  1.4505850350000002   F   F   F
  7.6881704309999996  3.1223747730000002  1.5101799770000002   F   F   F
  7.6881704309999996 11.1288750170000004  1.5101799770000002   F   F   F
 16.0044708229999983  3.1223747730000002  1.5101799770000002   F   F   F
 16.0044708229999983 11.1288750170000004  1.5101799770000002   F   F   F
  4.7862801570000002  3.1223747730000002  1.5101799770000002   F   F   F
  4.7862801570000002 11.1288750170000004  1.5101799770000002   F   F   F
 13.1025805490000007  3.1223747730000002  1.5101799770000002   F   F   F
 13.1025805490000007 11.1288750170000004  1.5101799770000002   F   F   F
  2.0790750979999997  4.0046911239999998  2.8097911590000009   F   F   F
  2.0790750979999997 12.0111913679995617  2.8097911590000009   F   F   F
 10.3953754899999993  4.0046911239999998  2.8097911590000009   F   F   F
 10.3953754899999993 12.0111913679995617  2.8097911590000009   F   F   F
  6.2372255350000003  1.0116213540000001  2.8512868960000000   F   F   F
  6.2372255350000003  9.0181215980000005  2.8512868960000000   F   F   F
 14.5535259270000008  1.0116213540000001  2.8512868960000000   F   F   F
 14.5535259270000008  9.0181215980000005  2.8512868960000000   F   F   F
  3.5058195599999999  1.1091405190000001  2.8921204679999999   F   F   F
  3.5058195599999999  9.1156407629999077  2.8921204679999999   F   F   F
 11.8221199520000013  1.1091405190000001  2.8921204679999999   F   F   F
 11.8221199520000013  9.1156407629999077  2.8921204679999999   F   F   F
  0.6523306360000000  1.1091405190000001  2.8921204679999999   F   F   F
  0.6523306360000000  9.1156407629999077  2.8921204679999999   F   F   F
  8.9686310280000008  1.1091405190000001  2.8921204679999999   F   F   F
  8.9686310280000008  9.1156407629999077  2.8921204679999999   F   F   F
  5.4094730646742137  7.5667411168818282  5.0485994653864719   T   T   T
  3.4500740982939937 14.3842743993665962  4.4580529639420714   T   T   T
 13.0904730005134411  7.0697137199638522  4.1174687031412125   T   T   T
 12.3486961040054304 15.6272834829415110  5.1684109395262015   T   T   T
  8.5176709256198091  6.4364645325224403  4.7263112004923533   T   T   T
  7.7581667396928964  0.1963492577070027  5.5925156909890630   T   T   T
  2.0395399472773308  7.3386066736798572  8.7617344722637824   T   T   T
  1.4167858594518332 13.7024650649170514  5.5684294739493705   T   T   T
  1.2312188211447390  5.1873754669287306  5.5732864957272010   T   T   T
  2.0319186571542054  0.9506788998601826  5.5703339376683205   T   T   T
 10.6755431106654282  8.1908027019325758  5.5952913914044435   T   T   T
 11.6713626573102882  0.4670427212419983  8.1574793807799502   T   T   T
  6.7697961275689362  4.0423738452653240  6.6635701841783854   T   T   T
  6.0625821845349668 13.6402315152029292  6.5318753583522557   T   T   T
 14.7635759529866668  4.3424059766296770  5.5430903328028327   T   T   T
 15.5143792352979162 10.6755911587363901  5.1793815525616704   T   T   T
 16.1294617959202817  6.7966032000507344 10.8857604388209790   T   T   T
  1.9947480159531918 12.2558157099871963  8.3498937928348163   T   T   T
  4.7587651812161926  4.1110940247839300  9.4781086719809160   T   T   T
  7.0602755226320077  1.6655341234085825 10.5728726476200556   T   T   T
  4.0888928091447658  5.1742184511219165  6.4528458268788116   T   T   T
  6.0969508671879336 15.2517410895053533  9.6129384079760580   T   T   T
 12.5473848687008509  6.5963309328516617  8.3116862017684277   T   T   T
 11.3542093432010791 12.6098169755580969  5.6264774396948312   T   T   T
  6.3807201413099177  9.1641094862400614  7.8684008774833707   T   T   T
 15.4759365703052385  0.8658042720584295  5.9345103635801113   T   T   T
 14.2724719887222538  9.1124637384426581  8.6593466514110915   T   T   T
  3.4262486215688455 12.5479484220646391 10.9610524428034868   T   T   T
  1.5429622005670014  9.6742020225230565  6.5422670994516254   T   T   T
 11.8733122407166949  5.0961209324716998  5.5271484154188313   T   T   T
 11.0037019485114111 10.3512946914694250  7.9065906325363065   T   T   T
  7.0355493244033660  8.6208359428616408 11.0715752215602983   T   T   T
 11.6350587501662588  3.7427929787723522  7.8790214185070964   T   T   T
 14.9972283459725322 14.0212792260853760  5.1225956420689194   T   T   T
  2.1299220569381050  8.9307390908587774 14.1905622550039130   T   T   T
  0.5163775018726796 15.8527957138419406  8.2923532244631382   T   T   T
  9.0865607757997928  8.4315017640370460  7.3044709378095813   T   T   T
 10.9210963658570073  2.0347713497377584  5.5635926674665264   T   T   T
  8.6413921566714329 13.5824847982444084  6.9271066491703559   T   T   T
  3.2227006962175793  2.1616303214948669 12.2552100411548359   T   T   T
  3.7430095600486331  8.9623350630295988 11.4387847849084139   T   T   T
  4.8513639218059863  1.7659491210227740  5.6904674820670431   T   T   T
  7.0007649418360840 11.3814879076783182  7.8332071519954223   T   T   T
 13.6266809799305602 13.5643471961005329  9.0395032111874460   T   T   T
 13.6418986447885704 11.5111540294082850  6.8213288999386545   T   T   T
 14.1910484896445919 15.9998640582053469 38.8276972906658884   T   T   T
  6.8585037112634284  0.3243039831681094 38.3520081519972251   T   T   T
  6.0055906382278668  9.1421092716857881 38.2225619244964321   T   T   T
 14.5535259270000008  2.9230933179999998  0.1562711810000000   F   F   F
 14.5535259270000008 10.9295935619996207  0.1562711810000000   F   F   F
  0.6781943470000000  3.1299810440000000  0.1849650420000000   F   F   F
  0.6781943470000000 11.1364812880000006  0.1849650420000000   F   F   F
  8.9944947390000003  3.1299810440000000  0.1849650420000000   F   F   F
  8.9944947390000003 11.1364812880000006  0.1849650420000000   F   F   F
  3.4799559160000002  3.1299810440000000  0.1849650420000000   F   F   F
  3.4799559160000002 11.1364812880000006  0.1849650420000000   F   F   F
 11.7962563080000002  3.1299810440000000  0.1849650420000000   F   F   F
 11.7962563080000002 11.1364812880000006  0.1849650420000000   F   F   F
  7.6381058709999996  4.9446544609999998  1.3722287220000000   F   F   F
  7.6381058709999996 12.9511547050000004  1.3722287220000000   F   F   F
 15.9544062629999992  4.9446544609999998  1.3722287220000000   F   F   F
 15.9544062629999992 12.9511547050000004  1.3722287220000000   F   F   F
  4.8363447180000021  4.9446544609999998  1.3722287220000000   F   F   F
  4.8363447180000021 12.9511547050000004  1.3722287220000000   F   F   F
 13.1526451100000017  4.9446544609999998  1.3722287220000000   F   F   F
 13.1526451100000017 12.9511547050000004  1.3722287220000000   F   F   F
  2.0790750979999997  5.1515421870000004  1.4007018609999999   F   F   F
  2.0790750979999997 13.1580424310000001  1.4007018609999999   F   F   F
 10.3953754899999993  5.1515421870000004  1.4007018609999999   F   F   F
 10.3953754899999993 13.1580424310000001  1.4007018609999999   F   F   F
  2.0790750979999997  0.9117802400000000  1.5379909500000000   F   F   F
  2.0790750979999997  8.9182804839997463  1.5379909500000000   F   F   F
 10.3953754899999993  0.9117802400000000  1.5379909500000000   F   F   F
 10.3953754899999993  8.9182804839997463  1.5379909500000000   F   F   F
  4.9318156220000002  1.1828804020000001  1.5571937650000001   F   F   F
  4.9318156220000002  9.1893806459999254  1.5571937650000001   F   F   F
 13.2481160140000043  1.1828804020000001  1.5571937650000001   F   F   F
 13.2481160140000043  9.1893806459999254  1.5571937650000001   F   F   F
  7.5426349669999997  1.1828804020000001  1.5571937650000001   F   F   F
  7.5426349669999997  9.1893806459999254  1.5571937650000001   F   F   F
 15.8589353590000002  1.1828804020000001  1.5571937650000001   F   F   F
 15.8589353590000002  9.1893806459999254  1.5571937650000001   F   F   F
  0.6849305000000002  2.9200506239999999  2.7994172239999999   F   F   F
  0.6849305000000002 10.9265508679994259  2.7994172239999999   F   F   F
  9.0012308920000006  2.9200506239999999  2.7994172239999999   F   F   F
  9.0012308920000006 10.9265508679994259  2.7994172239999999   F   F   F
  3.4732196289999999  2.9200506239999999  2.7994172239999999   F   F   F
  3.4732196289999999 10.9265508679994259  2.7994172239999999   F   F   F
 11.7895200210000048  2.9200506239999999  2.7994172239999999   F   F   F
 11.7895200210000048 10.9265508679994259  2.7994172239999999   F   F   F
  6.2372255350000003  2.9861845960000002  2.8003001120000000   F   F   F
  6.2372255350000003 10.9926848399997201  2.8003001120000000   F   F   F
 14.5535259270000008  2.9861845960000002  2.8003001120000000   F   F   F
 14.5535259270000008 10.9926848399997201  2.8003001120000000   F   F   F
  6.2372255350000003  7.0292267759999305  2.8837330309999998   F   F   F
  6.2372255350000003 15.0357270199999995  2.8837330309999998   F   F   F
 14.5535259270000008  7.0292267759999305  2.8837330309999998   F   F   F
 14.5535259270000008 15.0357270199999995  2.8837330309999998   F   F   F
  3.3824887250000000  7.1930398909999997  2.9069088420000000   F   F   F
  3.3824887250000000 15.1995401349999995  2.9069088420000000   F   F   F
 11.6987891170000005  7.1930398909999997  2.9069088420000000   F   F   F
 11.6987891170000005 15.1995401349999995  2.9069088420000000   F   F   F
  0.7756612880000000  7.1930398909999997  2.9069088420000000   F   F   F
  0.7756612880000000 15.1995401349999995  2.9069088420000000   F   F   F
  9.0919616800000025  7.1930398909999997  2.9069088420000000   F   F   F
  9.0919616800000025 15.1995401349999995  2.9069088420000000   F   F   F
  4.7850796586137729  0.9971192242049934  4.0670021005883772   F   F   F
  4.9337506537150340  8.8083039392009219  4.0083905175776460   F   F   F
 13.0374627165828052  0.6900407490924668  3.9993159209762097   F   F   F
 13.1328456792016262  8.7785660126170271  4.0029807766819818   F   F   F
  7.5461736698380077  1.0224002666357830  4.0982786207545612   F   F   F
  7.5696796153622001  8.6778216222902014  3.9964823303247643   F   F   F
 15.8273787757272277  1.0124540651186074  4.1475933981347897   F   F   F
 15.9110159289972426  9.4565156166365263  4.0203394103300321   F   F   F
  1.9311823963979105  1.2912100072064598  3.9685595620106007   F   F   F
  2.1174506380046525  9.2341743726584635  4.2332910178128813   F   F   F
 10.2834623131881049  1.3336064438152353  4.0995809283095399   F   F   F
 10.4823120927233244  9.0104823932167388  4.2002338325712056   F   F   F
  2.1072143192643598  4.9231156566301326  4.2071608662748012   F   F   F
  2.2285628357738299 13.0723454368543468  4.0688681866945391   F   F   F
 10.8410477681832518  4.9276233579139923  4.0502502456930722   T   T   T
 10.5691208139478920 12.4879712467130197  4.1976786619478856   T   T   T
  7.6282111815250042  5.3053928636750323  5.4842917127300144   T   T   T
  6.9127925940123998 14.8676959374335240  5.8825016219308335   T   T   T
 16.2252626772144595  4.9291622760001523  5.6788913265573582   T   T   T
 16.4971922263005162 13.5037399852825253  5.1489580996034015   T   T   T
  4.8014951548320575  5.9659019763708807  5.1905432129713160   T   T   T
  4.8474332080082707 14.0242502826473672  5.4212069943696086   T   T   T
 13.5224745475688035  5.1767779678369292  4.7206590973422298   T   T   T
 12.0144963194884440 14.0658106958205824  5.4309416265581678   T   T   T
  3.6111442268087290  6.0038283921100994 12.4386921889356117   T   T   T
  3.2591727445945970  1.8496294853091748  6.0822005745907397   T   T   T
 11.9207455353032454  6.9412966049020461  5.6117895010615619   T   T   T
 12.7031960475994978 15.5033069094668772  8.6444919725526059   T   T   T
  2.3639888941752032  5.4515937828393817  6.7226411484995561   T   T   T
  6.1536494294165109 13.9680541759301402  8.0799366062893530   T   T   T
  9.4135601329145793  7.3946524294975164  5.9879272425031136   T   T   T
 11.4218264402814089  0.7189693945136915  6.4050575046973570   T   T   T
  5.0847786649962936  4.3470947576638395  7.5719334398690528   T   T   T
  9.1296761304505285 14.6336478935366081  8.0134702119673893   T   T   T
  0.4782087516705207  7.1049890068583750  9.5627045550619112   T   T   T
 14.4700487552386559 15.4109108110874118  5.7841429725541893   T   T   T
  6.3316668108731413  2.7194130674213657  6.0153387406748724   T   T   T
  7.2808104564149430 12.5572134085226352  6.4997767775399318   T   T   T
 13.8279123080425475  7.4438699946332125  8.4012331167865373   T   T   T
 14.3252336748125799 12.0538440845452648  5.3043340523181461   T   T   T
  0.1597035193222144 10.6003215072466332  6.3230895977630786   T   T   T
 11.2120611441669507  3.5259601193255175  6.1735378076211012   T   T   T
  9.7972848431559534 12.5925613463953319  6.5406732932905021   T   T   T
  3.2588959813138612  6.9891611347531724  9.8866441149912063   T   T   T
  2.6728039268012966 10.7568317136951315  7.4772512796874189   T   T   T
 14.6091687713041267 13.5873663145628552 10.2943504716435204   T   T   T
 11.8249512141159201 11.2268342947922051  6.6764424355047947   T   T   T
 11.1783217802004593 10.6759598469262205  9.3871818425606293   T   T   T
 10.2001133124526469  0.6329257628349779  8.7812227376241410   T   T   T
 14.4288513741978441  4.3024140767031556 12.6073763528551659   T   T   T
  3.4504554365767532 12.0856664951859507  9.2705106269048123   T   T   T
  8.3252097072173665  2.6418697734415080  9.9954870175354191   T   T   T
  1.8046547862845581 13.2780685480290419  7.0877332099020940   T   T   T
 12.1492718979336995  8.3795598047219997 11.9030514490830193   T   T   T
 14.1441653147410520 12.7287629146676284  7.6268908659380896   T   T   T
 14.9213859744364221  5.6576337681239464 10.7878144967409302   T   T   T
  0.3363786132419369  0.6539773831700277  6.8279674775909482   T   T   T
 12.0743922829824939 11.0691902272638600 11.6557011372984576   T   T   T
  7.5251727178932191  0.2003399273117815  9.5227924145656839   T   T   T
  5.2748520456374308  5.3781706183116480 10.5052151073737114   T   T   T
  0.2316518510894844  8.7999923619869200 13.9463403344615386   T   T   T
 10.6982560537812965  8.9929063202070907  7.0447905458382118   T   T   T
 12.1152090890246829  5.2447667357314209  7.5115462721907011   T   T   T
 15.6679848361183733  8.0387475673624245 11.9806364990344338   T   T   T
  8.5387085796751450  0.8110703186226945  7.1108133005402552   T   T   T
  7.7892222929611110  9.5214614226719334  7.0657168323081549   T   T   T
 14.8387288454961563  2.5191652887134439  6.2120095724451785   T   T   T
 13.6972597461169432  9.8482160671237615  7.2780508831854105   T   T   T
 13.4816173640824939  2.3102722207612647  9.7690933161659892   T   T   T
 12.5282046881808782  2.5195727160437658  8.6707233914940964   T   T   T
 12.9763637098068081  9.7653867010069355 11.7106610420210178   T   T   T
 11.4664405648928849  6.9181147777609073  9.5897308062153321   T   T   T
 10.2034381377667369  3.9860770164880130  8.6185243428008889   T   T   T
  8.6766683276824992  3.7716503815161015  8.9676466729958086   T   T   T
 13.6077805809561347  3.6222982243410780 10.6101343253347657   T   T   T
  6.2479959587441769  8.7498154125725982  9.5295808695790782   T   T   T
  8.5804781935972017  5.1348406278157768  9.8494512169790447   T   T   T
 11.3018770080525925 11.7950701129440532 10.4014402947474132   T   T   T
 13.6075665208484917  9.6152540915283389 10.2842766462548809   T   T   T
 13.7603810960545339  4.9807599631284925 11.2717074306404808   T   T   T
  3.2420242098030747  4.4063989873029579 10.5187665765001483   T   T   T
  9.8055078610057311 11.8871935229398460 10.6794736398088457   T   T   T
  3.6055909341069228  5.8157614686370529 10.8490835041734108   T   T   T
  4.8068021270680754 15.9176113208349186  9.3425893113882239   T   T   T
 16.5809528966707624 13.2601527470435130 11.3837415316863435   T   T   T
 14.8900020552688765  1.1709960169052571 11.2123658640871877   T   T   T
  2.2954460212557102 15.1986896853060838  5.2266033997632686   T   T   T
  7.9798651054527081  3.9077596306785534  7.7360902707158452   T   T   T
  8.7511418268684391  0.1099278112560067  8.5173593734568307   T   T   T
 15.3980017570338976 15.7458574133452327 11.3206280015910199   T   T   T
 14.8567475881464528  1.7843258972593943  9.6898027707760690   T   T   T
 15.6926103284308347 14.4142911183618079 10.7007268336938459   T   T   T
 16.4698893705045855  3.4373952556240432 14.3996700172048779   T   T   T
  3.4075620746665645 15.6780225684004275 10.1445786889213672   T   T   T
  3.1919508202216158  0.9986394919617411 11.0892705497076598   T   T   T
  7.4139924608919641 12.2317900484207964 11.4878345576666412   T   T   T
  3.5796400987548038  9.8201808735571650  9.8662620368384708   T   T   T
 11.9724453058544373 12.9755305505537244  9.6263457876175877   T   T   T
  6.7442807158019837  1.2495724054483921 12.1473264613211924   T   T   T
  0.6297331878898902 11.8122167875224680 11.0600705300900231   T   T   T
  5.2954034743518754 10.6387899787557583  8.0549723566996825   T   T   T
  8.0935435920540879 11.2650431156769066  9.1798422450644477   T   T   T
  6.1494303491856153 13.0943930024078732 11.8923102217522629   T   T   T
 16.5848438697029046 10.6274603486329990 11.7442363622295449   T   T   T
  1.7507660404560943  8.5167249641470342  7.7145300579502649   T   T   T
  8.3600798357239174 11.2514892231827837 10.6655065671950471   T   T   T
  5.4837160000936418  7.8093698976127861  6.7181357687372865   T   T   T
  1.0717922117204213 11.8575999189569892  9.6583766463599527   T   T   T
  3.8775062199554378 10.5020057700306992  8.5993477781545344   T   T   T
 15.1846184806152547  1.9825634242470085 12.4765492083106722   T   T   T
 16.0959193646081147 15.0594600093100919  9.1662108609430089   T   T   T
  2.5246108914858962  8.9771076649928059 12.5224167859424291   T   T   T
  8.9142781167860115  7.3421745842291299  8.7724722456579283   T   T   T
  6.0813694358369634 14.4723005788468218 11.1464878670689682   T   T   T
  2.0268684829025623 12.1137735475813635 12.1695640900650037   T   T   T
 11.5994537260543442  7.0203544968448570 11.2481462835244184   T   T   T
  8.3964444619736511  9.8750257947722577 11.2639097641147465   T   T   T
  9.9738657149503780  6.9886706063895589 11.2733833069321658   T   T   T
 15.6137542028753487  3.4638980532649755 12.9696981361879473   T   T   T
  0.1278185450534368  4.1964739792580641 12.5048740453959706   T   T   T
 14.1425741466873482  9.6895224076299780 12.7338828944111526   T   T   T
  9.0443928178516888  6.5979479427644838 10.1539023824194778   T   T   T
  2.0734173107474652 15.7998410582058941  9.2376587601632778   T   T   T
 15.7226005623972362  9.0734985281117346 12.9490409834902636   T   T   T
  3.6775459078502495 13.3925457484149515 14.1727308835376409   T   T   T
  7.5485692585644966  7.0589494106373607 11.0050238665153639   T   T   T
  6.1256661811661157 13.4534345442370338 13.5059418020098079   T   T   T
  4.7964919660824421 12.2187615697811864 11.7050238142767764   T   T   T
  4.8894204708929889 14.2637081275973987 13.9336279016485509   T   T   T
  2.1259801985998799  2.5461125707041199 13.4187979911090327   T   T   T
 13.3425299871612566  1.2873907293162592 10.9010144407599014   T   T   T
  6.8824604392015409  5.4838788325285170 11.0808653038672809   T   T   T
  5.9198690434503742  2.8429737144049634 10.0717832127738767   T   T   T
 12.4762447589257857  5.7895549317492669 11.4496414408651042   T   T   T
  5.1486618000682283 15.7517397970569295 14.0228193676693387   T   T   T
  4.6289346443666890  5.4764372029908115 14.7408934710310362   T   T   T
  2.2574759157566255  4.8223455283487038 14.3174085656397772   T   T   T
  6.3730745716459412  2.5351432621220034 14.2655861806366335   T   T   T
  1.1645920926573252  3.7855121844683350 13.8561154660731560   T   T   T
  6.7998409957574282  4.6117633270489922 12.4908390358114332   T   T   T
 11.2821302368434235  5.6793064298163269 38.5009918605666996   T   T   T
  3.3711715771455810  5.8978733191595785 13.9401413555551823   T   T   T
  5.4082535002526697  9.1500996661985781 11.9209061846653324   T   T   T
  4.5479336835048683 15.0202998223394140 39.7959989748120648   T   T   T
  6.1519194090817306  0.9283615495190963 13.5344017761735653   T   T   T
  3.4044049863296508 14.3726648437278808 10.8506734758308845   T   T   T
  2.6750803637459697  7.4476533794174724 14.4626236702367841   T   T   T
  5.9459436562862606  3.6974635392163870 13.2927578537931428   T   T   T
  2.3845508118448580 10.5401220228889603 14.6931474283335142   T   T   T
  4.7050690393848322  3.0517214157498369 12.8283713905494494   T   T   T
  2.3356422370858323 12.0267381730702869 13.7573991679883267   T   T   T
