gAl_110
1.0
       16.6326007843         0.0000000000         0.0000000000
        0.0000000000        16.0130004883         0.0000000000
        0.0000000000         0.0000000000        40.0000000000
   Al    O
   96  144
Selective Dynamics
Cartesian
0.628046989	4.952180859	0.047013788	F	F	F
0.628046989	12.9586811	0.047013788	F	F	F
8.944347381	4.952180859	0.047013788	F	F	F
8.944347381	12.9586811	0.047013788	F	F	F
3.530020003	4.952180859	0.047013788	F	F	F
3.530020003	12.9586811	0.047013788	F	F	F
11.8463204	4.952180859	0.047013788	F	F	F
11.8463204	12.9586811	0.047013788	F	F	F
6.237225535	1.048691394	0.106388008	F	F	F
6.237225535	9.055191638	0.106388008	F	F	F
14.55352593	1.048691394	0.106388008	F	F	F
14.55352593	9.055191638	0.106388008	F	F	F
2.079075098	2.076405765	0.140599919	F	F	F
2.079075098	10.08290601	0.140599919	F	F	F
10.39537549	2.076405765	0.140599919	F	F	F
10.39537549	10.08290601	0.140599919	F	F	F
6.237225535	5.998149875	1.416373124	F	F	F
6.237225535	14.00465012	1.416373124	F	F	F
14.55352593	5.998149875	1.416373124	F	F	F
14.55352593	14.00465012	1.416373124	F	F	F
2.079075098	7.025943759	1.450585035	F	F	F
2.079075098	15.032444	1.450585035	F	F	F
10.39537549	7.025943759	1.450585035	F	F	F
10.39537549	15.032444	1.450585035	F	F	F
7.688170431	3.122374773	1.510179977	F	F	F
7.688170431	11.12887502	1.510179977	F	F	F
16.00447082	3.122374773	1.510179977	F	F	F
16.00447082	11.12887502	1.510179977	F	F	F
4.786280157	3.122374773	1.510179977	F	F	F
4.786280157	11.12887502	1.510179977	F	F	F
13.10258055	3.122374773	1.510179977	F	F	F
13.10258055	11.12887502	1.510179977	F	F	F
2.079075098	4.004691124	2.809791159	F	F	F
2.079075098	12.01119137	2.809791159	F	F	F
10.39537549	4.004691124	2.809791159	F	F	F
10.39537549	12.01119137	2.809791159	F	F	F
6.237225535	1.011621354	2.851286896	F	F	F
6.237225535	9.018121598	2.851286896	F	F	F
14.55352593	1.011621354	2.851286896	F	F	F
14.55352593	9.018121598	2.851286896	F	F	F
3.50581956	1.109140519	2.892120468	F	F	F
3.50581956	9.115640763	2.892120468	F	F	F
11.82211995	1.109140519	2.892120468	F	F	F
11.82211995	9.115640763	2.892120468	F	F	F
0.652330636	1.109140519	2.892120468	F	F	F
0.652330636	9.115640763	2.892120468	F	F	F
8.968631028	1.109140519	2.892120468	F	F	F
8.968631028	9.115640763	2.892120468	F	F	F
4.80415363	7.015770815	4.208012814	T	T	T
4.80415363	15.02227106	4.208012814	T	T	T
13.12045402	7.015770815	4.208012814	T	T	T
13.12045402	15.02227106	4.208012814	T	T	T
7.670289247	7.015772006	4.208019066	T	T	T
7.670289247	15.02227225	4.208019066	T	T	T
15.98658964	7.015772006	4.208019066	T	T	T
15.98658964	15.02227225	4.208019066	T	T	T
2.079069228	6.987229568	4.179612917	T	T	T
2.079069228	14.99372981	4.179612917	T	T	T
10.39536962	6.987229568	4.179612917	T	T	T
10.39536962	14.99372981	4.179612917	T	T	T
6.237222858	3.928919871	4.248064559	T	T	T
6.237222858	11.93542012	4.248064559	T	T	T
14.55352325	3.928919871	4.248064559	T	T	T
14.55352325	11.93542012	4.248064559	T	T	T
0.717867032	4.969701062	5.793297945	T	T	T
0.717867032	12.97620131	5.793297945	T	T	T
9.034167424	4.969701062	5.793297945	T	T	T
9.034167424	12.97620131	5.793297945	T	T	T
3.440284532	4.969684403	5.793330547	T	T	T
3.440284532	12.97618465	5.793330547	T	T	T
11.75658492	4.969684403	5.793330547	T	T	T
11.75658492	12.97618465	5.793330547	T	T	T
6.237219588	0.789711719	6.459887667	T	T	T
6.237219588	8.796211963	6.459887667	T	T	T
14.55351998	0.789711719	6.459887667	T	T	T
14.55351998	8.796211963	6.459887667	T	T	T
2.079072171	1.919144146	5.790045539	T	T	T
2.079072171	9.92564439	5.790045539	T	T	T
10.39537256	1.919144146	5.790045539	T	T	T
10.39537256	9.92564439	5.790045539	T	T	T
6.2371906	5.459239532	6.391241271	T	T	T
6.2371906	13.46573978	6.391241271	T	T	T
14.55349099	5.459239532	6.391241271	T	T	T
14.55349099	13.46573978	6.391241271	T	T	T
2.079065701	7.187079195	6.776116563	T	T	T
2.079065701	15.19357944	6.776116563	T	T	T
10.39536609	7.187079195	6.776116563	T	T	T
10.39536609	15.19357944	6.776116563	T	T	T
7.750858273	2.932686202	6.86073866	T	T	T
7.750858273	10.93918645	6.86073866	T	T	T
16.06715867	2.932686202	6.86073866	T	T	T
16.06715867	10.93918645	6.86073866	T	T	T
4.72362718	2.932619988	6.860649494	T	T	T
4.72362718	10.93912023	6.860649494	T	T	T
13.03992757	2.932619988	6.860649494	T	T	T
13.03992757	10.93912023	6.860649494	T	T	T
3.384484771	6.891755103	0	F	F	F
3.384484771	14.89825535	0	F	F	F
11.70078516	6.891755103	0	F	F	F
11.70078516	14.89825535	0	F	F	F
0.773665425	6.891755103	0	F	F	F
0.773665425	14.89825535	0	F	F	F
9.089965817	6.891755103	0	F	F	F
9.089965817	14.89825535	0	F	F	F
6.237225535	7.16277504	0.019202815	F	F	F
6.237225535	15.16927528	0.019202815	F	F	F
14.55352593	7.16277504	0.019202815	F	F	F
14.55352593	15.16927528	0.019202815	F	F	F
6.237225535	2.923093318	0.156271181	F	F	F
6.237225535	10.92959356	0.156271181	F	F	F
14.55352593	2.923093318	0.156271181	F	F	F
14.55352593	10.92959356	0.156271181	F	F	F
0.678194347	3.129981044	0.184965042	F	F	F
0.678194347	11.13648129	0.184965042	F	F	F
8.994494739	3.129981044	0.184965042	F	F	F
8.994494739	11.13648129	0.184965042	F	F	F
3.479955916	3.129981044	0.184965042	F	F	F
3.479955916	11.13648129	0.184965042	F	F	F
11.79625631	3.129981044	0.184965042	F	F	F
11.79625631	11.13648129	0.184965042	F	F	F
7.638105871	4.944654461	1.372228722	F	F	F
7.638105871	12.95115471	1.372228722	F	F	F
15.95440626	4.944654461	1.372228722	F	F	F
15.95440626	12.95115471	1.372228722	F	F	F
4.836344718	4.944654461	1.372228722	F	F	F
4.836344718	12.95115471	1.372228722	F	F	F
13.15264511	4.944654461	1.372228722	F	F	F
13.15264511	12.95115471	1.372228722	F	F	F
2.079075098	5.151542187	1.400701861	F	F	F
2.079075098	13.15804243	1.400701861	F	F	F
10.39537549	5.151542187	1.400701861	F	F	F
10.39537549	13.15804243	1.400701861	F	F	F
2.079075098	0.91178024	1.53799095	F	F	F
2.079075098	8.918280484	1.53799095	F	F	F
10.39537549	0.91178024	1.53799095	F	F	F
10.39537549	8.918280484	1.53799095	F	F	F
4.931815622	1.182880402	1.557193765	F	F	F
4.931815622	9.189380646	1.557193765	F	F	F
13.24811601	1.182880402	1.557193765	F	F	F
13.24811601	9.189380646	1.557193765	F	F	F
7.542634967	1.182880402	1.557193765	F	F	F
7.542634967	9.189380646	1.557193765	F	F	F
15.85893536	1.182880402	1.557193765	F	F	F
15.85893536	9.189380646	1.557193765	F	F	F
0.6849305	2.920050624	2.799417224	F	F	F
0.6849305	10.92655087	2.799417224	F	F	F
9.001230892	2.920050624	2.799417224	F	F	F
9.001230892	10.92655087	2.799417224	F	F	F
3.473219629	2.920050624	2.799417224	F	F	F
3.473219629	10.92655087	2.799417224	F	F	F
11.78952002	2.920050624	2.799417224	F	F	F
11.78952002	10.92655087	2.799417224	F	F	F
6.237225535	2.986184596	2.800300112	F	F	F
6.237225535	10.99268484	2.800300112	F	F	F
14.55352593	2.986184596	2.800300112	F	F	F
14.55352593	10.99268484	2.800300112	F	F	F
6.237225535	7.029226776	2.883733031	F	F	F
6.237225535	15.03572702	2.883733031	F	F	F
14.55352593	7.029226776	2.883733031	F	F	F
14.55352593	15.03572702	2.883733031	F	F	F
3.382488725	7.193039891	2.906908842	F	F	F
3.382488725	15.19954014	2.906908842	F	F	F
11.69878912	7.193039891	2.906908842	F	F	F
11.69878912	15.19954014	2.906908842	F	F	F
0.775661288	7.193039891	2.906908842	F	F	F
0.775661288	15.19954014	2.906908842	F	F	F
9.09196168	7.193039891	2.906908842	F	F	F
9.09196168	15.19954014	2.906908842	F	F	F
4.891965389	0.840496882	4.114154054	T	T	T
4.891965389	8.846997126	4.114154054	T	T	T
13.20826578	0.840496882	4.114154054	T	T	T
13.20826578	8.846997126	4.114154054	T	T	T
7.582478709	0.840498894	4.114149585	T	T	T
7.582478709	8.846999138	4.114149585	T	T	T
15.8987791	0.840498894	4.114149585	T	T	T
15.8987791	8.846999138	4.114149585	T	T	T
2.079064248	1.000535883	4.196786434	T	T	T
2.079064248	9.007036127	4.196786434	T	T	T
10.39536464	1.000535883	4.196786434	T	T	T
10.39536464	9.007036127	4.196786434	T	T	T
2.079059566	5.051239808	4.297025399	T	T	T
2.079059566	13.05774005	4.297025399	T	T	T
10.39535996	5.051239808	4.297025399	T	T	T
10.39535996	13.05774005	4.297025399	T	T	T
7.512733183	5.146991599	4.606920242	T	T	T
7.512733183	13.15349184	4.606920242	T	T	T
15.82903358	5.146991599	4.606920242	T	T	T
15.82903358	13.15349184	4.606920242	T	T	T
4.961708222	5.147003147	4.606919585	T	T	T
4.961708222	13.15350339	4.606919585	T	T	T
13.27800861	5.147003147	4.606919585	T	T	T
13.27800861	13.15350339	4.606919585	T	T	T
3.422823014	6.895495363	5.498317049	T	T	T
3.422823014	14.90199561	5.498317049	T	T	T
11.73912341	6.895495363	5.498317049	T	T	T
11.73912341	14.90199561	5.498317049	T	T	T
0.735299221	6.895495854	5.498323625	T	T	T
0.735299221	14.9019961	5.498323625	T	T	T
9.051599613	6.895495854	5.498323625	T	T	T
9.051599613	14.9019961	5.498323625	T	T	T
6.237213433	7.140647319	5.739234247	T	T	T
6.237213433	15.14714756	5.739234247	T	T	T
14.55351383	7.140647319	5.739234247	T	T	T
14.55351383	15.14714756	5.739234247	T	T	T
6.237232714	2.929907974	5.742681062	T	T	T
6.237232714	10.93640822	5.742681062	T	T	T
14.55353311	2.929907974	5.742681062	T	T	T
14.55353311	10.93640822	5.742681062	T	T	T
0.79383845	3.141194907	5.801646983	T	T	T
0.79383845	11.14769515	5.801646983	T	T	T
9.110138842	3.141194907	5.801646983	T	T	T
9.110138842	11.14769515	5.801646983	T	T	T
3.364334024	3.141172696	5.801649019	T	T	T
3.364334024	11.14767294	5.801649019	T	T	T
11.68063442	3.141172696	5.801649019	T	T	T
11.68063442	11.14767294	5.801649019	T	T	T
7.660889899	4.735009786	7.166109874	T	T	T
7.660889899	12.74151003	7.166109874	T	T	T
15.97719029	4.735009786	7.166109874	T	T	T
15.97719029	12.74151003	7.166109874	T	T	T
4.813542135	4.734947443	7.166120874	T	T	T
4.813542135	12.74144769	7.166120874	T	T	T
13.12984253	4.734947443	7.166120874	T	T	T
13.12984253	12.74144769	7.166120874	T	T	T
2.079059261	5.406830066	6.99889202	T	T	T
2.079059261	13.41333031	6.99889202	T	T	T
10.39535965	5.406830066	6.99889202	T	T	T
10.39535965	13.41333031	6.99889202	T	T	T
2.079075924	0.827902398	7.128563753	T	T	T
2.079075924	8.834402642	7.128563753	T	T	T
10.39537632	0.827902398	7.128563753	T	T	T
10.39537632	8.834402642	7.128563753	T	T	T
4.871257722	1.318209958	7.381821534	T	T	T
4.871257722	9.324710202	7.381821534	T	T	T
13.18755811	1.318209958	7.381821534	T	T	T
13.18755811	9.324710202	7.381821534	T	T	T
7.603156977	1.318317147	7.381783805	T	T	T
7.603156977	9.324817391	7.381783805	T	T	T
15.91945737	1.318317147	7.381783805	T	T	T
15.91945737	9.324817391	7.381783805	T	T	T