gAl_110
1.0
        8.3163003922         0.0000000000         0.0000000000
        0.0000000000         8.0065002441         0.0000000000
        0.0000000000         0.0000000000        40.0
   Al    O
   24   36
Cartesian
     0.628046989         4.952180859         0.047013788
     3.530020003         4.952180859         0.047013788
     6.237225535         1.048691394         0.106388008
     2.079075098         2.076405765         0.140599919
     6.237225535         5.998149875         1.416373124
     2.079075098         7.025943759         1.450585035
     7.688170431         3.122374773         1.510179977
     4.786280157         3.122374773         1.510179977
     2.079075098         4.004691124         2.809791159
     6.237225535         1.011621354         2.851286896
     3.505819560         1.109140519         2.892120468
     0.652330636         1.109140519         2.892120468
     4.804153630         7.015770815         4.208012814
     7.670289247         7.015772006         4.208019066
     2.079069228         6.987229568         4.179612917
     6.237222858         3.928919871         4.248064559
     0.717867032         4.969701062         5.793297945
     3.440284532         4.969684403         5.793330547
     6.237219588         0.789711719         6.459887667
     2.079072171         1.919144146         5.790045539
     6.237190600         5.459239532         6.391241271
     2.079065701         7.187079195         6.776116563
     7.750858273         2.932686202         6.860738660
     4.723627180         2.932619988         6.860649494
     3.384484771         6.891755103         0.000000000
     0.773665425         6.891755103         0.000000000
     6.237225535         7.162775040         0.019202815
     6.237225535         2.923093318         0.156271181
     0.678194347         3.129981044         0.184965042
     3.479955916         3.129981044         0.184965042
     7.638105871         4.944654461         1.372228722
     4.836344718         4.944654461         1.372228722
     2.079075098         5.151542187         1.400701861
     2.079075098         0.911780240         1.537990950
     4.931815622         1.182880402         1.557193765
     7.542634967         1.182880402         1.557193765
     0.684930500         2.920050624         2.799417224
     3.473219629         2.920050624         2.799417224
     6.237225535         2.986184596         2.800300112
     6.237225535         7.029226776         2.883733031
     3.382488725         7.193039891         2.906908842
     0.775661288         7.193039891         2.906908842
     4.891965389         0.840496882         4.114154054
     7.582478709         0.840498894         4.114149585
     2.079064248         1.000535883         4.196786434
     2.079059566         5.051239808         4.297025399
     7.512733183         5.146991599         4.606920242
     4.961708222         5.147003147         4.606919585
     3.422823014         6.895495363         5.498317049
     0.735299221         6.895495854         5.498323625
     6.237213433         7.140647319         5.739234247
     6.237232714         2.929907974         5.742681062
     0.793838450         3.141194907         5.801646983
     3.364334024         3.141172696         5.801649019
     7.660889899         4.735009786         7.166109874
     4.813542135         4.734947443         7.166120874
     2.079059261         5.406830066         6.998892020
     2.079075924         0.827902398         7.128563753
     4.871257722         1.318209958         7.381821534
     7.603156977         1.318317147         7.381783805
